============================[ Problem Statistics ]=============================|                                                                             ||  Number of variables:          4242                                         ||  Number of clauses:            9816                                         ||  Parse time:                   0.22 s                                       ||                                                                             |============================[ Search Statistics ]==============================| Conflicts |          ORIGINAL         |          LEARNT          | Progress ||           |    Vars  Clauses Literals |    Limit  Clauses Lit/Cl |          |===============================================================================|       100 |    1591     6021   326812 |     2207      100     53 | 62.501 % |===============================================================================restarts              : 2conflicts             : 128            (357 /sec)decisions             : 299            (0.00 % random) (833 /sec)propagations          : 9910           (27604 /sec)conflict literals     : 7751           (95.61 % deleted)CPU time              : 0.359 sSATISFIABLE